N = 13;
H = 5;
T = 2;

avail = array3d(1..N, 1..H, 1..T, [6, 3, 1, 3, 3, 1, 6, 9, 9, 7, 2, 1, 5, 1, 3, 2, 6, 3, 10, 6, 3, 9, 0, 9, 3, 3, 3, 10, 6, 5, 4, 1, 6, 1, 2, 6, 0, 10, 3, 8, 2, 3, 2, 6, 7, 0, 6, 8, 8, 4, 8, 7, 3, 0, 2, 5, 1, 6, 1, 6, 5, 9, 1, 9, 6, 5, 0, 1, 10, 4, 10, 0, 9, 9, 6, 9, 10, 7, 6, 3, 2, 1, 9, 2, 7, 7, 8, 5, 2, 1, 3, 6, 9, 10, 10, 6, 3, 10, 3, 1, 6, 7, 1, 6, 10, 2, 0, 8, 2, 3, 0, 0, 10, 6, 10, 4, 2, 4, 2, 2, 9, 4, 0, 7, 9, 0, 6, 6, 4, 2]);

r = array2d(1..H, 1..T, [3, 1, 4, 5, 2, 4, 7, 5, 2, 6]);
